cases/pglib-opf/pglib_opf_case89_pegase.m
ipopt
ACR
[info | PowerModels]: removing 1 cost terms from generator 4: [3258.3235999999997, 0.0]
[info | PowerModels]: removing 1 cost terms from generator 1: [658.6541000000001, 0.0]
[info | PowerModels]: removing 1 cost terms from generator 12: [1765.5344, 0.0]
[info | PowerModels]: removing 1 cost terms from generator 2: [3479.4851000000003, 0.0]
[info | PowerModels]: removing 1 cost terms from generator 6: [2770.7032000000004, 0.0]
[info | PowerModels]: removing 1 cost terms from generator 11: [3127.1293, 0.0]
[info | PowerModels]: removing 1 cost terms from generator 5: [1676.2466, 0.0]
[info | PowerModels]: removing 1 cost terms from generator 7: [839.8332999999999, 0.0]
[info | PowerModels]: removing 1 cost terms from generator 8: [3799.2336999999998, 0.0]
[info | PowerModels]: removing 1 cost terms from generator 10: [2251.779, 0.0]
[info | PowerModels]: removing 1 cost terms from generator 9: [2076.0836999999997, 0.0]
[info | PowerModels]: removing 1 cost terms from generator 3: [4229.3854, 0.0]

******************************************************************************
This program contains Ipopt, a library for large-scale nonlinear optimization.
 Ipopt is released as open source code under the Eclipse Public License (EPL).
         For more information visit http://projects.coin-or.org/Ipopt
******************************************************************************

This is Ipopt version 3.13.2, running with linear solver mumps.
NOTE: Other linear solvers might be more efficient (see Ipopt documentation).

Number of nonzeros in equality constraint Jacobian...:    10045
Number of nonzeros in inequality constraint Jacobian.:     4492
Number of nonzeros in Lagrangian Hessian.............:     7904

Total number of variables............................:     1042
                     variables with only lower bounds:        0
                variables with lower and upper bounds:     1042
                     variables with only upper bounds:        0
Total number of equality constraints.................:     1019
Total number of inequality constraints...............:     1010
        inequality constraints with only lower bounds:      295
   inequality constraints with lower and upper bounds:        0
        inequality constraints with only upper bounds:      715

iter    objective    inf_pr   inf_du lg(mu)  ||d||  lg(rg) alpha_du alpha_pr  ls
   0  8.1215627e+04 1.30e+01 1.00e+02  -1.0 0.00e+00    -  0.00e+00 0.00e+00   0
   1  8.2109976e+04 1.26e+01 9.75e+01  -1.0 1.47e+01    -  2.27e-02 2.67e-02h  1
   2  8.1801680e+04 1.23e+01 9.64e+01  -1.0 3.76e+01    -  4.42e-03 2.91e-02f  1
   3  8.1031839e+04 1.15e+01 9.25e+01  -1.0 3.78e+01    -  3.29e-02 6.72e-02f  1
   4  7.6961293e+04 9.83e+00 8.44e+01  -1.0 1.00e+02    -  7.00e-02 1.42e-01f  1
   5  7.6423603e+04 8.41e+00 6.11e+01  -1.0 1.22e+02    -  3.29e-01 1.44e-01f  1
   6  8.0441697e+04 6.69e+00 4.20e+01  -1.0 1.08e+02    -  3.98e-01 2.05e-01h  1
   7  8.0814791e+04 6.58e+00 3.65e+01  -1.0 9.23e+01    -  3.59e-01 1.60e-02h  3
   8  8.0940397e+04 6.55e+00 3.58e+01  -1.0 9.22e+01    -  6.28e-02 4.90e-03h  7
   9  8.0947109e+04 6.54e+00 3.03e+01  -1.0 9.22e+01    -  5.25e-01 2.93e-04h 11
iter    objective    inf_pr   inf_du lg(mu)  ||d||  lg(rg) alpha_du alpha_pr  ls
  10  8.0949910e+04 6.54e+00 3.03e+01  -1.0 9.22e+01    -  1.91e-01 1.09e-04h 13
  11  9.6551937e+04 2.59e+00 2.44e+01  -1.0 9.22e+01    -  2.98e-02 6.04e-01H  1
  12  9.9509895e+04 1.69e+00 1.48e+01  -1.0 6.42e+01    -  7.04e-01 3.49e-01h  1
  13  1.0184193e+05 1.13e+00 1.45e+01  -1.0 4.65e+01    -  9.90e-01 3.28e-01h  1
  14  1.0440458e+05 5.33e-01 8.00e+00  -1.0 3.33e+01    -  7.01e-01 5.30e-01h  1
  15  1.0512232e+05 3.81e-01 5.59e+00  -1.0 1.70e+01    -  2.56e-01 2.85e-01h  1
  16  1.0513806e+05 3.77e-01 9.91e+00  -1.0 3.80e+01    -  1.82e-01 9.54e-03h  1
  17  1.0672639e+05 1.06e-01 2.47e+00  -1.0 1.22e+01    -  2.89e-01 7.18e-01h  1
  18  1.0727350e+05 8.74e-02 4.52e-01  -1.0 3.70e+00    -  9.92e-01 8.44e-01h  1
  19  1.0725730e+05 3.10e-02 1.54e+01  -1.7 2.27e+00    -  9.59e-01 6.52e-01h  1
iter    objective    inf_pr   inf_du lg(mu)  ||d||  lg(rg) alpha_du alpha_pr  ls
  20  1.0726109e+05 3.32e-02 6.70e+01  -1.7 7.96e+00    -  9.67e-01 1.42e-01h  2
  21  1.0730266e+05 3.41e-04 5.06e+00  -1.7 7.94e+00    -  1.00e+00 1.00e+00H  1
  22  1.0730430e+05 2.26e-04 4.09e-03  -1.7 1.57e+00    -  1.00e+00 1.00e+00h  1
  23  1.0730431e+05 6.50e-07 3.98e-05  -1.7 3.37e-01    -  1.00e+00 1.00e+00h  1
  24  1.0728896e+05 8.70e-04 1.40e+00  -3.8 3.11e+00    -  7.56e-01 8.43e-01f  1
  25  1.0728584e+05 4.36e-04 2.27e-01  -3.8 3.07e+00    -  9.54e-01 1.00e+00h  1
  26  1.0728581e+05 2.64e-05 5.16e-04  -3.8 1.66e+00    -  1.00e+00 1.00e+00h  1
  27  1.0728581e+05 3.55e-07 1.35e-05  -3.8 2.17e-01    -  1.00e+00 1.00e+00h  1
  28  1.0728567e+05 6.75e-07 1.65e-05  -5.7 1.59e-01    -  1.00e+00 1.00e+00h  1
  29  1.0728567e+05 7.25e-11 4.74e-09  -5.7 3.11e-03    -  1.00e+00 1.00e+00h  1
iter    objective    inf_pr   inf_du lg(mu)  ||d||  lg(rg) alpha_du alpha_pr  ls
  30  1.0728567e+05 1.08e-10 2.59e-09  -8.6 2.03e-03    -  1.00e+00 1.00e+00h  1

Number of Iterations....: 30

                                   (scaled)                 (unscaled)
Objective...............:   2.5366728964493263e+03    1.0728567312818494e+05
Dual infeasibility......:   2.5895493197169043e-09    1.0952202085390608e-07
Constraint violation....:   4.5706303279870571e-12    1.0784262371998921e-10
Complementarity.........:   3.4161798534392363e-09    1.4448341195910048e-07
Overall NLP error.......:   3.4161798534392363e-09    1.4448341195910048e-07


Number of objective function evaluations             = 68
Number of objective gradient evaluations             = 31
Number of equality constraint evaluations            = 68
Number of inequality constraint evaluations          = 68
Number of equality constraint Jacobian evaluations   = 31
Number of inequality constraint Jacobian evaluations = 31
Number of Lagrangian Hessian evaluations             = 30
Total CPU secs in IPOPT (w/o function evaluations)   =      0.676
Total CPU secs in NLP function evaluations           =      0.219

EXIT: Optimal Solution Found.
Time to Solution........:1.5990171432495117
